000 000 000 000 000 000 000 000 -99 -99 -99 -99 -99 000 000 000 -99 -99 000 000 -99 000 000 000 000 000 -99 -99 -99 -99 000
000 000 000 000 000 000 000 000 -99 -99 -99 -99 -99 000 000 000 -99 -99 000 000 000 000 000 000 000 000 -99 -99 -99 -99 000
-99 000 000 000 000 000 000 000 000 000 -99 -99 -99 -99 000 000 -99 -99 -99 000 000 000 000 000 -99 000 -99 -99 -99 -99 -99
-99 000 000 000 000 000 000 -99 000 000 -99 -99 000 -99 -99 -99 -99 -99 -99 000 000 -99 000 000 -99 -99 -99 -99 -99 -99 -99
000 000 000 000 000 000 000 000 000 000 -99 000 000 -99 -99 000 -99 -99 -99 -99 000 000 000 000 000 -99 -99 -99 -99 -99 -99
000 000 000 000 -99 000 000 000 000 -99 -99 000 000 000 000 000 -99 -99 -99 -99 000 000 000 000 000 -99 -99 -99 -99 -99 -99
000 000 000 -99 -99 000 000 000 000 000 000 000 000 000 -99 -99 000 000 -99 -99 000 000 000 000 000 -99 -99 -99 -99 -99 -99
000 000 000 000 -99 -99 -99 000 -99 -99 000 000 000 000 -99 -99 000 000 -99 -99 000 000 -99 000 000 -99 -99 -99 -99 -99 -99
000 000 000 000 -99 -99 -99 000 000 000 000 000 000 -99 -99 000 000 000 000 000 000 -99 -99 000 000 -99 -99 -99 -99 -99 -99
000 000 000 000 000 -99 -99 000 000 000 000 000 000 -99 000 000 000 000 000 000 000 000 -99 -99 -99 -99 -99 -99 000 000 000
000 000 000 000 000 -99 -99 -99 000 000 000 000 000 -99 000 000 000 000 -99 -99 000 000 -99 -99 000 -99 -99 -99 000 000 000
000 000 000 -99 000 000 000 000 -99 000 000 000 -99 -99 000 000 000 -99 -99 000 000 000 -99 -99 000 001 001 001 000 -99 -99
000 000 000 000 000 000 000 000 -99 000 000 000 000 -99 -99 000 000 000 -99 -99 -99 -99 -99 000 000 000 001 010 000 000 -99
000 -99 000 000 000 000 000 000 -99 -99 000 000 000 000 -99 -99 000 000 -99 -99 -99 000 -99 000 000 000 007 007 -99 -99 -99
000 -99 -99 -99 000 000 000 000 000 000 000 000 000 000 000 000 000 000 000 -99 -99 -99 -99 000 000 000 003 001 000 000 -99
000 -99 -99 -99 000 000 000 000 000 000 -99 -99 -99 000 000 000 000 000 000 -99 -99 000 -99 000 000 000 001 000 000 000 -99
000 -99 -99 -99 -99 -99 000 000 000 -99 -99 -99 -99 000 000 000 000 000 000 -99 -99 000 000 000 000 000 000 000 000 000 -99
000 000 000 -99 -99 -99 000 000 000 000 000 -99 -99 -99 000 000 000 000 000 -99 -99 -99 000 -99 000 000 -99 000 000 000 -99
000 000 000 000 -99 -99 -99 000 000 000 000 000 -99 -99 000 000 000 000 000 -99 -99 000 000 -99 000 -99 -99 -99 -99 000 -99
000 000 000 000 -99 -99 -99 000 000 000 000 000 -99 -99 000 000 000 000 000 000 -99 000 000 -99 -99 -99 -99 -99 -99 -99 -99
000 000 000 000 000 000 -99 -99 000 000 -99 -99 -99 -99 -99 000 000 000 000 000 000 000 000 -99 -99 -99 -99 -99 -99 -99 -99
000 000 000 000 000 000 -99 000 000 000 -99 -99 -99 -99 -99 000 000 000 000 000 000 000 000 -99 -99 -99 -99 -99 -99 -99 -99
000 000 000 000 000 000 -99 000 000 000 -99 -99 -99 000 000 000 000 000 000 000 000 000 000 -99 -99 -99 -99 -99 -99 -99 -99
000 000 000 000 000 -99 000 000 000 000 -99 -99 000 000 000 000 000 000 000 000 000 000 000 -99 -99 -99 -99 -99 -99 -99 -99
000 000 000 000 000 -99 -99 000 000 000 -99 -99 000 000 000 000 000 000 000 000 000 000 000 -99 -99 -99 -99 -99 -99 -99 -99
000 000 000 000 000 000 000 000 000 -99 -99 -99 -99 000 000 000 000 000 000 000 000 -99 -99 -99 -99 -99 -99 -99 -99 -99 -99
000 000 000 000 000 000 000 000 000 000 000 -99 -99 000 000 000 000 000 000 000 000 000 000 -99 -99 -99 -99 -99 -99 000 -99
000 000 000 -99 000 000 000 000 000 000 -99 -99 -99 000 000 000 000 000 000 -99 000 000 000 -99 -99 -99 -99 -99 -99 000 -99
000 000 000 -99 000 000 000 000 000 000 000 -99 -99 -99 000 -99 000 000 000 -99 000 000 -99 -99 -99 -99 -99 -99 -99 -99 -99
000 000 000 -99 000 000 -99 000 000 000 000 -99 -99 000 000 000 000 000 000 -99 000 000 -99 000 -99 -99 -99 -99 -99 -99 -99
000 000 000 000 000 000 000 000 000 000 000 -99 -99 -99 000 -99 000 000 000 000 000 000 -99 000 -99 -99 -99 -99 -99 -99 -99
000 000 000 000 000 000 -99 -99 000 000 000 -99 -99 000 000 -99 000 000 000 -99 -99 000 000 000 -99 -99 -99 -99 -99 -99 -99
000 000 000 000 000 000 -99 -99 000 000 -99 -99 -99 -99 000 000 000 000 000 -99 -99 -99 000 000 000 -99 -99 000 000 -99 000
000 000 000 000 000 000 000 000 000 000 -99 -99 -99 000 000 000 000 000 -99 -99 -99 -99 000 000 000 000 -99 000 000 000 000
000 000 000 000 000 000 000 000 000 000 -99 -99 000 000 000 000 000 -99 -99 000 000 000 -99 000 000 000 000 000 000 000 000
-99 000 000 000 000 000 000 000 000 000 -99 -99 000 000 000 000 000 -99 -99 000 000 000 000 000 000 000 000 000 000 000 000
000 -99 -99 000 000 000 -99 000 000 000 -99 000 000 000 000 000 000 -99 -99 000 000 000 000 -99 000 000 000 000 000 000 000
000 -99 -99 -99 000 000 -99 000 000 000 -99 000 000 000 000 000 000 -99 -99 -99 000 -99 -99 000 000 000 000 000 000 000 -99
000 000 000 -99 000 000 -99 000 000 000 -99 000 000 000 000 000 000 000 -99 -99 000 -99 -99 000 000 000 000 000 -99 -99 -99
000 000 000 000 000 -99 -99 -99 -99 -99 -99 000 000 000 000 000 000 000 000 -99 000 -99 -99 000 000 000 000 000 -99 -99 -99
000 000 000 000 000 -99 -99 -99 -99 000 000 000 000 000 000 000 000 000 000 000 -99 -99 -99 000 -99 -99 000 000 -99 -99 -99
000 000 -99 -99 -99 -99 000 000 000 000 000 000 000 000 000 000 000 000 000 000 -99 -99 -99 -99 -99 -99 -99 -99 -99 -99 -99
000 000 -99 -99 -99 000 000 -99 000 000 000 000 000 000 000 000 000 000 000 000 -99 -99 -99 -99 000 -99 -99 -99 -99 -99 -99
000 -99 -99 -99 -99 000 000 -99 -99 -99 -99 -99 000 000 000 000 000 000 000 -99 -99 -99 -99 -99 000 -99 -99 -99 -99 -99 -99
000 -99 -99 -99 -99 -99 -99 -99 -99 -99 000 000 000 000 000 -99 000 000 000 -99 -99 -99 -99 000 000 -99 -99 -99 -99 -99 -99
000 -99 -99 -99 -99 -99 -99 -99 -99 004 000 000 000 000 000 -99 000 000 000 000 -99 -99 -99 000 000 -99 -99 -99 -99 -99 -99
000 -99 -99 -99 -99 -99 -99 -99 -99 007 001 000 000 000 -99 -99 -99 000 000 000 -99 -99 -99 000 -99 -99 -99 -99 -99 -99 -99
-99 -99 -99 -99 -99 -99 -99 -99 026 025 024 000 000 000 -99 -99 -99 000 000 000 000 000 000 000 -99 -99 -99 -99 -99 -99 -99
-99 -99 -99 -99 -99 -99 -99 -99 005 011 -99 000 000 000 -99 -99 000 000 000 000 000 000 000 -99 -99 -99 -99 000 -99 -99 -99
-99 -99 -99 -99 -99 -99 -99 -99 002 005 -99 000 000 000 -99 -99 000 000 000 000 000 000 -99 -99 -99 -99 000 000 -99 -99 -99
-99 -99 -99 -99 -99 -99 -99 -99 -99 -99 -99 -99 000 -99 -99 000 000 000 000 000 000 000 000 -99 -99 -99 000 -99 -99 -99 -99
-99 -99 -99 -99 -99 -99 -99 -99 -99 -99 -99 -99 000 000 -99 000 000 000 000 000 000 000 000 -99 -99 000 -99 -99 -99 -99 -99
-99 -99 -99 -99 -99 -99 -99 -99 -99 -99 -99 -99 -99 -99 000 000 000 000 000 000 000 000 -99 000 -99 -99 -99 -99 -99 -99 -99
-99 -99 -99 -99 -99 -99 -99 -99 -99 -99 -99 -99 -99 -99 000 000 000 000 000 000 000 000 000 000 -99 -99 -99 -99 -99 -99 -99
-99 -99 -99 -99 -99 -99 -99 -99 -99 -99 -99 -99 -99 -99 000 000 000 000 000 000 000 000 000 -99 -99 -99 -99 -99 -99 -99 -99
